<number of tasks>
89

<cycle time>
17

<task times>
1 1
2 2
3 3
4 4
5 5
6 6
7 7
8 8
9 9
10 10
11 1
12 2
13 3
14 4
15 5
16 6
17 7
18 8
19 9
20 10
21 1
22 2
23 3
24 4
25 5
26 6
27 7
28 8
29 9
30 10
31 1
32 2
33 3
34 4
35 5
36 6
37 7
38 8
39 9
40 10
41 1
42 2
43 3
44 4
45 5
46 6
47 7
48 8
49 9
50 10
51 1
52 2
53 3
54 4
55 5
56 6
57 7
58 8
59 9
60 10
61 1
62 2
63 3
64 4
65 5
66 6
67 7
68 8
69 9
70 10
71 1
72 2
73 3
74 4
75 5
76 6
77 7
78 8
79 9
80 10
81 1
82 2
83 3
84 4
85 5
86 6
87 7
88 8
89 9

<precedence relations>
1,2
2,3
3,4
4,5
4,6
4,7
4,8
4,9
5,10
6,11
7,12
8,18
9,18
10,14
11,12
12,13
13,14
14,15
14,16
15,17
16,54
17,18
18,19
18,20
19,22
20,21
20,28
21,54
22,23
23,24
24,25
25,26
25,27
25,29
26,37
27,33
28,29
29,31
30,54
31,32
32,33
33,34
34,35
35,36
35,37
36,38
37,38
38,39
39,40
39,41
39,42
39,43
40,44
41,53
42,53
43,45
44,52
45,46
46,47
47,48
47,49
49,50
50,51
51,52
52,53
53,68
53,69
53,70
53,71
54,55
55,56
56,57
57,58
57,59
57,60
57,61
57,62
57,63
57,64
57,65
57,66
58,67
59,67
60,67
61,67
62,67
63,67
64,67
65,67
66,67
67,73
68,72
69,72
70,72
71,73
72,78
72,80
73,74
74,75
74,76
75,77
76,81
77,78
78,79
79,81
80,81
81,82
81,84
81,85
82,83
83,86
84,86
85,86
86,87
87,88
87,89

<setup times forward>
1,30:1
2,30:1
3,30:1
4,6:1
4,7:1
4,30:1
5,6:1
5,7:1
5,10:1
5,11:1
5,12:1
5,13:1
5,30:1
6,5:1
6,8:1
6,9:1
6,10:2
6,30:2
7,5:1
7,8:1
7,9:1
7,10:2
7,30:2
8,6:1
8,7:1
8,10:1
8,11:1
8,12:1
8,13:1
8,14:1
8,18:1
8,30:1
9,6:1
9,7:1
9,10:1
9,11:1
9,12:1
9,13:1
9,14:1
9,18:1
9,30:1
10,6:2
10,7:2
10,8:1
10,9:1
10,11:2
10,12:2
11,5:1
11,8:1
11,9:1
11,10:2
11,30:2
12,5:1
12,8:1
12,9:1
12,10:2
12,13:2
12,30:2
13,5:1
13,8:1
13,9:1
14,8:1
14,9:1
14,15:1
14,16:1
15,30:1
16,18:1
16,19:1
16,22:2
16,23:2
16,24:2
16,25:1
16,26:2
16,27:1
16,28:2
16,29:1
16,30:1
16,31:1
16,32:1
16,33:2
16,34:2
16,36:1
16,38:2
16,39:2
16,40:2
16,41:1
16,42:1
16,43:2
16,44:2
16,45:1
16,46:1
16,47:1
16,48:1
16,50:1
16,51:1
16,52:1
16,53:1
16,54:2
16,68:2
16,69:2
16,70:1
16,71:1
16,72:1
16,80:1
17,18:1
17,30:1
18,16:1
18,20:1
19,16:1
19,20:1
19,21:1
19,22:1
19,28:1
19,54:1
19,55:1
19,56:1
19,57:1
19,58:1
19,59:2
19,61:1
19,62:2
19,63:1
19,64:2
19,65:2
19,66:2
19,67:2
20,19:1
20,22:2
20,23:2
20,24:2
20,25:1
20,26:2
20,27:1
20,28:2
20,30:1
21,19:1
21,22:2
21,23:2
21,24:2
21,25:1
21,26:2
21,27:1
21,28:2
21,29:1
21,30:1
21,31:1
21,32:1
21,33:2
21,34:2
21,36:1
21,38:2
21,39:2
21,40:2
21,41:1
21,42:1
21,43:2
21,44:2
21,45:1
21,46:1
21,47:1
21,48:1
21,50:1
21,51:1
21,52:1
21,53:1
21,54:2
21,68:2
21,69:2
21,70:1
21,71:1
21,72:1
21,80:1
22,16:2
22,20:2
22,21:2
22,30:1
22,55:2
22,56:2
22,57:2
22,58:2
22,59:3
22,60:1
22,61:2
22,62:3
22,63:2
22,64:3
22,65:3
22,66:3
22,67:3
23,16:2
23,20:2
23,21:2
23,30:1
23,55:2
23,56:2
23,57:2
23,58:2
23,59:3
23,60:1
23,61:2
23,62:3
23,63:2
23,64:3
23,65:3
23,66:3
23,67:3
24,16:2
24,20:2
24,21:2
24,25:3
24,30:1
24,55:2
24,56:2
24,57:2
24,58:2
24,59:3
24,60:1
24,61:2
24,62:3
24,63:2
24,64:3
24,65:3
24,66:3
24,67:3
25,16:1
25,20:1
25,21:1
25,26:3
25,27:2
25,28:3
25,30:2
25,54:3
25,55:1
25,56:1
25,57:1
25,58:1
25,60:2
25,61:1
25,63:1
26,16:2
26,20:2
26,21:2
26,27:1
26,29:3
26,30:1
26,31:3
26,32:3
26,35:2
26,36:3
26,37:2
26,55:2
26,56:2
26,57:2
26,58:2
26,59:3
26,60:1
26,61:2
26,62:3
26,63:2
26,64:3
26,65:3
26,66:3
26,67:3
27,16:1
27,20:1
27,21:1
27,26:1
27,28:1
27,29:2
27,31:2
27,32:2
27,33:1
27,54:1
27,55:1
27,56:1
27,57:1
27,58:1
27,59:2
27,61:1
27,62:2
27,63:1
27,64:2
27,65:2
27,66:2
27,67:2
28,16:2
28,19:1
28,21:2
28,25:3
28,27:1
28,29:3
28,30:1
28,55:2
28,56:2
28,57:2
28,58:2
28,59:3
28,60:1
28,61:2
28,62:3
28,63:2
28,64:3
28,65:3
28,66:3
28,67:3
29,16:1
29,21:1
29,26:3
29,27:2
29,30:2
29,54:3
29,55:1
29,56:1
29,57:1
29,58:1
29,60:2
29,61:1
29,63:1
30,1:1
30,2:1
30,3:1
30,4:1
30,5:1
30,6:2
30,7:2
30,8:1
30,9:1
30,11:2
30,12:2
30,15:1
30,16:1
30,17:1
30,20:1
30,21:1
30,22:1
30,23:1
30,24:1
30,25:2
30,26:1
30,28:1
30,29:2
30,31:2
30,32:2
30,33:1
30,34:1
30,35:1
30,36:2
30,37:1
30,38:1
30,39:1
30,40:1
30,41:2
30,42:2
30,43:1
30,44:1
30,45:2
30,46:2
30,49:1
30,50:2
30,51:2
30,52:2
30,53:2
30,54:1
30,68:1
30,69:1
30,70:2
30,71:2
30,72:2
31,16:1
31,21:1
31,26:3
31,27:2
31,30:2
31,54:3
31,55:1
31,56:1
31,57:1
31,58:1
31,60:2
31,61:1
31,63:1
32,16:1
32,21:1
32,26:3
32,27:2
32,30:2
32,33:3
32,54:3
32,55:1
32,56:1
32,57:1
32,58:1
32,60:2
32,61:1
32,63:1
33,16:2
33,21:2
33,30:1
33,55:2
33,56:2
33,57:2
33,58:2
33,59:3
33,60:1
33,61:2
33,62:3
33,63:2
33,64:3
33,65:3
33,66:3
33,67:3
34,16:2
34,21:2
34,30:1
34,35:2
34,55:2
34,56:2
34,57:2
34,58:2
34,59:3
34,60:1
34,61:2
34,62:3
34,63:2
34,64:3
34,65:3
34,66:3
34,67:3
35,26:2
35,30:1
35,36:1
35,54:2
35,59:1
35,60:1
35,62:1
35,64:1
35,65:1
35,66:1
35,67:1
36,16:1
36,21:1
36,26:3
36,30:2
36,37:1
36,38:3
36,54:3
36,55:1
36,56:1
36,57:1
36,58:1
36,60:2
36,61:1
36,63:1
37,30:1
37,36:1
37,38:2
37,54:2
37,59:1
37,60:1
37,62:1
37,64:1
37,65:1
37,66:1
37,67:1
38,16:2
38,21:2
38,30:1
38,55:2
38,56:2
38,57:2
38,58:2
38,59:3
38,60:1
38,61:2
38,62:3
38,63:2
38,64:3
38,65:3
38,66:3
38,67:3
39,16:2
39,21:2
39,30:1
39,41:3
39,42:3
39,55:2
39,56:2
39,57:2
39,58:2
39,59:3
39,60:1
39,61:2
39,62:3
39,63:2
39,64:3
39,65:3
39,66:3
39,67:3
40,16:2
40,21:2
40,30:1
40,41:3
40,42:3
40,45:3
40,46:3
40,47:1
40,48:1
40,49:2
40,50:3
40,51:3
40,55:2
40,56:2
40,57:2
40,58:2
40,59:3
40,60:1
40,61:2
40,62:3
40,63:2
40,64:3
40,65:3
40,66:3
40,67:3
41,16:1
41,21:1
41,30:2
41,40:3
41,43:3
41,44:3
41,47:2
41,48:2
41,49:1
41,54:3
41,55:1
41,56:1
41,57:1
41,58:1
41,60:2
41,61:1
41,63:1
42,16:1
42,21:1
42,30:2
42,40:3
42,43:3
42,44:3
42,47:2
42,48:2
42,49:1
42,54:3
42,55:1
42,56:1
42,57:1
42,58:1
42,60:2
42,61:1
42,63:1
43,16:2
43,21:2
43,30:1
43,41:3
43,42:3
43,45:3
43,55:2
43,56:2
43,57:2
43,58:2
43,59:3
43,60:1
43,61:2
43,62:3
43,63:2
43,64:3
43,65:3
43,66:3
43,67:3
44,16:2
44,21:2
44,30:1
44,41:3
44,42:3
44,45:3
44,46:3
44,47:1
44,48:1
44,49:2
44,50:3
44,51:3
44,52:3
44,55:2
44,56:2
44,57:2
44,58:2
44,59:3
44,60:1
44,61:2
44,62:3
44,63:2
44,64:3
44,65:3
44,66:3
44,67:3
45,16:1
45,21:1
45,30:2
45,40:3
45,44:3
45,54:3
45,55:1
45,56:1
45,57:1
45,58:1
45,60:2
45,61:1
45,63:1
46,16:1
46,21:1
46,30:2
46,40:3
46,44:3
46,47:2
46,54:3
46,55:1
46,56:1
46,57:1
46,58:1
46,60:2
46,61:1
46,63:1
47,16:1
47,21:1
47,40:1
47,41:2
47,42:2
47,44:1
47,49:1
47,54:1
47,55:1
47,56:1
47,57:1
47,58:1
47,59:2
47,61:1
47,62:2
47,63:1
47,64:2
47,65:2
47,66:2
47,67:2
48,16:1
48,21:1
48,40:1
48,41:2
48,42:2
48,44:1
48,49:1
48,50:2
48,51:2
48,52:2
48,53:2
48,54:1
48,55:1
48,56:1
48,57:1
48,58:1
48,59:2
48,61:1
48,62:2
48,63:1
48,64:2
48,65:2
48,66:2
48,67:2
48,68:1
48,69:1
48,70:2
48,71:2
48,72:2
48,73:2
48,76:1
48,78:1
48,79:1
48,81:1
48,82:1
48,83:1
48,84:1
48,85:1
48,86:1
48,87:1
48,88:1
48,89:1
49,30:1
49,40:2
49,41:1
49,42:1
49,44:2
49,48:1
49,50:1
49,54:2
49,59:1
49,60:1
49,62:1
49,64:1
49,65:1
49,66:1
49,67:1
50,16:1
50,21:1
50,30:2
50,40:3
50,44:3
50,48:2
50,54:3
50,55:1
50,56:1
50,57:1
50,58:1
50,60:2
50,61:1
50,63:1
51,16:1
51,21:1
51,30:2
51,40:3
51,44:3
51,48:2
51,54:3
51,55:1
51,56:1
51,57:1
51,58:1
51,60:2
51,61:1
51,63:1
52,16:1
52,21:1
52,30:2
52,48:2
52,54:3
52,55:1
52,56:1
52,57:1
52,58:1
52,60:2
52,61:1
52,63:1
53,16:1
53,21:1
53,30:2
53,48:2
53,54:3
53,55:1
53,56:1
53,57:1
53,58:1
53,60:2
53,61:1
53,63:1
53,68:3
53,69:3
54,19:1
54,25:3
54,27:1
54,29:3
54,31:3
54,32:3
54,35:2
54,36:3
54,37:2
54,41:3
54,42:3
54,45:3
54,46:3
54,47:1
54,48:1
54,49:2
54,50:3
54,51:3
54,52:3
54,53:3
54,55:2
54,70:3
54,71:3
54,72:3
54,80:1
55,19:1
55,22:2
55,23:2
55,24:2
55,25:1
55,26:2
55,27:1
55,28:2
55,29:1
55,31:1
55,32:1
55,33:2
55,34:2
55,36:1
55,38:2
55,39:2
55,40:2
55,41:1
55,42:1
55,43:2
55,44:2
55,45:1
55,46:1
55,47:1
55,48:1
55,50:1
55,51:1
55,52:1
55,53:1
55,68:2
55,69:2
55,70:1
55,71:1
55,72:1
55,80:1
56,19:1
56,22:2
56,23:2
56,24:2
56,25:1
56,26:2
56,27:1
56,28:2
56,29:1
56,31:1
56,32:1
56,33:2
56,34:2
56,36:1
56,38:2
56,39:2
56,40:2
56,41:1
56,42:1
56,43:2
56,44:2
56,45:1
56,46:1
56,47:1
56,48:1
56,50:1
56,51:1
56,52:1
56,53:1
56,68:2
56,69:2
56,70:1
56,71:1
56,72:1
56,80:1
57,19:1
57,22:2
57,23:2
57,24:2
57,25:1
57,26:2
57,27:1
57,28:2
57,29:1
57,31:1
57,32:1
57,33:2
57,34:2
57,36:1
57,38:2
57,39:2
57,40:2
57,41:1
57,42:1
57,43:2
57,44:2
57,45:1
57,46:1
57,47:1
57,48:1
57,50:1
57,51:1
57,52:1
57,53:1
57,59:1
57,60:1
57,62:1
57,64:1
57,65:1
57,66:1
57,68:2
57,69:2
57,70:1
57,71:1
57,72:1
57,80:1
58,19:1
58,22:2
58,23:2
58,24:2
58,25:1
58,26:2
58,27:1
58,28:2
58,29:1
58,31:1
58,32:1
58,33:2
58,34:2
58,36:1
58,38:2
58,39:2
58,40:2
58,41:1
58,42:1
58,43:2
58,44:2
58,45:1
58,46:1
58,47:1
58,48:1
58,50:1
58,51:1
58,52:1
58,53:1
58,59:1
58,60:1
58,62:1
58,64:1
58,65:1
58,66:1
58,67:1
58,68:2
58,69:2
58,70:1
58,71:1
58,72:1
58,80:1
59,19:2
59,22:3
59,23:3
59,24:3
59,26:3
59,27:2
59,28:3
59,33:3
59,34:3
59,35:1
59,37:1
59,38:3
59,39:3
59,40:3
59,43:3
59,44:3
59,47:2
59,48:2
59,49:1
59,58:1
59,60:2
59,61:1
59,63:1
59,68:3
59,69:3
59,80:2
60,22:1
60,23:1
60,24:1
60,25:2
60,26:1
60,28:1
60,29:2
60,31:2
60,32:2
60,33:1
60,34:1
60,35:1
60,36:2
60,37:1
60,38:1
60,39:1
60,40:1
60,41:2
60,42:2
60,43:1
60,44:1
60,45:2
60,46:2
60,49:1
60,50:2
60,51:2
60,52:2
60,53:2
60,58:1
60,59:2
60,61:1
60,62:2
60,63:1
60,64:2
60,65:2
60,66:2
60,67:2
60,68:1
60,69:1
60,70:2
60,71:2
60,72:2
61,19:1
61,22:2
61,23:2
61,24:2
61,25:1
61,26:2
61,27:1
61,28:2
61,29:1
61,31:1
61,32:1
61,33:2
61,34:2
61,36:1
61,38:2
61,39:2
61,40:2
61,41:1
61,42:1
61,43:2
61,44:2
61,45:1
61,46:1
61,47:1
61,48:1
61,50:1
61,51:1
61,52:1
61,53:1
61,59:1
61,60:1
61,62:1
61,64:1
61,65:1
61,66:1
61,67:1
61,68:2
61,69:2
61,70:1
61,71:1
61,72:1
61,80:1
62,19:2
62,22:3
62,23:3
62,24:3
62,26:3
62,27:2
62,28:3
62,33:3
62,34:3
62,35:1
62,37:1
62,38:3
62,39:3
62,40:3
62,43:3
62,44:3
62,47:2
62,48:2
62,49:1
62,58:1
62,60:2
62,61:1
62,63:1
62,68:3
62,69:3
62,80:2
63,19:1
63,22:2
63,23:2
63,24:2
63,25:1
63,26:2
63,27:1
63,28:2
63,29:1
63,31:1
63,32:1
63,33:2
63,34:2
63,36:1
63,38:2
63,39:2
63,40:2
63,41:1
63,42:1
63,43:2
63,44:2
63,45:1
63,46:1
63,47:1
63,48:1
63,50:1
63,51:1
63,52:1
63,53:1
63,59:1
63,60:1
63,62:1
63,64:1
63,65:1
63,66:1
63,67:1
63,68:2
63,69:2
63,70:1
63,71:1
63,72:1
63,80:1
64,19:2
64,22:3
64,23:3
64,24:3
64,26:3
64,27:2
64,28:3
64,33:3
64,34:3
64,35:1
64,37:1
64,38:3
64,39:3
64,40:3
64,43:3
64,44:3
64,47:2
64,48:2
64,49:1
64,58:1
64,60:2
64,61:1
64,63:1
64,68:3
64,69:3
64,80:2
65,19:2
65,22:3
65,23:3
65,24:3
65,26:3
65,27:2
65,28:3
65,33:3
65,34:3
65,35:1
65,37:1
65,38:3
65,39:3
65,40:3
65,43:3
65,44:3
65,47:2
65,48:2
65,49:1
65,58:1
65,60:2
65,61:1
65,63:1
65,68:3
65,69:3
65,80:2
66,19:2
66,22:3
66,23:3
66,24:3
66,26:3
66,27:2
66,28:3
66,33:3
66,34:3
66,35:1
66,37:1
66,38:3
66,39:3
66,40:3
66,43:3
66,44:3
66,47:2
66,48:2
66,49:1
66,58:1
66,60:2
66,61:1
66,63:1
66,68:3
66,69:3
66,80:2
67,19:2
67,22:3
67,23:3
67,24:3
67,26:3
67,27:2
67,28:3
67,33:3
67,34:3
67,35:1
67,37:1
67,38:3
67,39:3
67,40:3
67,43:3
67,44:3
67,47:2
67,48:2
67,49:1
67,68:3
67,69:3
67,80:2
68,16:2
68,21:2
68,30:1
68,48:1
68,55:2
68,56:2
68,57:2
68,58:2
68,59:3
68,60:1
68,61:2
68,62:3
68,63:2
68,64:3
68,65:3
68,66:3
68,67:3
68,70:3
68,71:3
68,72:3
68,73:3
68,74:1
68,75:1
68,77:1
69,16:2
69,21:2
69,30:1
69,48:1
69,55:2
69,56:2
69,57:2
69,58:2
69,59:3
69,60:1
69,61:2
69,62:3
69,63:2
69,64:3
69,65:3
69,66:3
69,67:3
69,70:3
69,71:3
69,72:3
69,73:3
69,74:1
69,75:1
69,77:1
70,16:1
70,21:1
70,30:2
70,48:2
70,54:3
70,55:1
70,56:1
70,57:1
70,58:1
70,60:2
70,61:1
70,63:1
70,68:3
70,69:3
70,74:2
70,75:2
70,76:3
70,77:2
71,16:1
71,21:1
71,30:2
71,48:2
71,54:3
71,55:1
71,56:1
71,57:1
71,58:1
71,60:2
71,61:1
71,63:1
71,68:3
71,69:3
71,80:2
72,16:1
72,21:1
72,30:2
72,48:2
72,54:3
72,55:1
72,56:1
72,57:1
72,58:1
72,60:2
72,61:1
72,63:1
72,74:2
72,75:2
72,76:3
72,77:2
72,78:3
72,80:2
73,48:2
73,68:3
73,69:3
73,74:2
73,80:2
74,68:1
74,69:1
74,70:2
74,72:2
74,76:1
75,68:1
75,69:1
75,70:2
75,72:2
75,76:1
76,48:1
76,70:3
76,72:3
76,75:1
76,77:1
76,80:1
77,68:1
77,69:1
77,70:2
77,72:2
77,76:1
77,78:1
78,48:1
78,80:1
79,48:1
79,80:1
80,16:1
80,21:1
80,54:1
80,55:1
80,56:1
80,57:1
80,58:1
80,59:2
80,61:1
80,62:2
80,63:1
80,64:2
80,65:2
80,66:2
80,67:2
80,71:2
80,73:2
80,76:1
80,78:1
80,79:1
80,81:1
81,48:1
81,84:2
82,48:1
82,84:2
83,48:1
83,84:2
83,86:2
84,48:1
84,82:2
84,83:2
84,85:2
85,48:1
85,84:2
85,86:2
86,48:1
87,48:1
87,88:2
87,89:2
88,48:1
89,48:1

<setup times backward>
1,30:1
2,30:1
3,30:1
4,30:1
5,13:1
5,30:1
6,1:1
6,2:1
6,3:1
6,4:1
6,5:1
6,8:1
6,9:1
6,10:2
6,30:2
7,1:1
7,2:1
7,3:1
7,4:1
7,5:1
7,8:1
7,9:1
7,10:2
7,30:2
8,10:1
8,13:1
8,14:1
8,30:1
9,10:1
9,13:1
9,14:1
9,30:1
11,1:1
11,2:1
11,3:1
11,4:1
11,5:1
11,8:1
11,9:1
11,10:2
11,30:2
12,1:1
12,2:1
12,3:1
12,4:1
12,5:1
12,8:1
12,9:1
12,10:2
12,30:2
15,10:1
15,13:1
15,14:1
15,30:1
16,10:1
16,13:1
16,14:1
16,18:1
16,19:1
16,22:2
16,23:2
16,24:2
16,26:2
16,27:1
16,28:2
16,30:1
16,33:2
16,34:2
16,38:2
16,39:2
16,40:2
16,43:2
16,44:2
16,47:1
16,48:1
16,68:2
16,69:2
16,80:1
17,10:1
17,13:1
17,14:1
17,30:1
19,28:1
19,54:1
20,10:1
20,13:1
20,14:1
20,18:1
20,19:1
20,22:2
20,23:2
20,24:2
20,26:2
20,27:1
20,30:1
21,10:1
21,13:1
21,14:1
21,18:1
21,19:1
21,22:2
21,23:2
21,24:2
21,26:2
21,27:1
21,28:2
21,30:1
21,33:2
21,34:2
21,38:2
21,39:2
21,40:2
21,43:2
21,44:2
21,47:1
21,48:1
21,68:2
21,69:2
21,80:1
25,1:1
25,2:1
25,3:1
25,4:1
25,5:1
25,8:1
25,9:1
25,10:2
25,13:2
25,14:2
25,15:1
25,16:1
25,17:1
25,18:2
25,19:2
25,20:1
25,21:1
25,22:3
25,23:3
25,24:3
25,28:3
25,30:2
25,54:3
25,55:1
25,56:1
25,57:1
25,58:1
25,60:2
25,61:1
25,63:1
27,22:1
27,23:1
27,24:1
27,26:1
27,28:1
27,54:1
29,1:1
29,2:1
29,3:1
29,4:1
29,5:1
29,8:1
29,9:1
29,10:2
29,13:2
29,14:2
29,15:1
29,16:1
29,17:1
29,18:2
29,19:2
29,20:1
29,21:1
29,22:3
29,23:3
29,24:3
29,26:3
29,27:2
29,28:3
29,30:2
29,54:3
29,55:1
29,56:1
29,57:1
29,58:1
29,60:2
29,61:1
29,63:1
30,22:1
30,23:1
30,24:1
30,26:1
30,28:1
30,33:1
30,34:1
30,38:1
30,39:1
30,40:1
30,43:1
30,44:1
30,68:1
30,69:1
31,1:1
31,2:1
31,3:1
31,4:1
31,5:1
31,8:1
31,9:1
31,10:2
31,13:2
31,14:2
31,15:1
31,16:1
31,17:1
31,18:2
31,19:2
31,20:1
31,21:1
31,22:3
31,23:3
31,24:3
31,26:3
31,27:2
31,28:3
31,30:2
31,54:3
31,55:1
31,56:1
31,57:1
31,58:1
31,60:2
31,61:1
31,63:1
32,1:1
32,2:1
32,3:1
32,4:1
32,5:1
32,8:1
32,9:1
32,10:2
32,13:2
32,14:2
32,15:1
32,16:1
32,17:1
32,18:2
32,19:2
32,20:1
32,21:1
32,22:3
32,23:3
32,24:3
32,26:3
32,27:2
32,28:3
32,30:2
32,54:3
32,55:1
32,56:1
32,57:1
32,58:1
32,60:2
32,61:1
32,63:1
35,10:1
35,13:1
35,14:1
35,18:1
35,19:1
35,22:2
35,23:2
35,24:2
35,26:2
35,27:1
35,28:2
35,30:1
35,33:2
35,34:2
35,54:2
35,60:1
36,1:1
36,2:1
36,3:1
36,4:1
36,5:1
36,8:1
36,9:1
36,10:2
36,13:2
36,14:2
36,15:1
36,16:1
36,17:1
36,18:2
36,19:2
36,20:1
36,21:1
36,22:3
36,23:3
36,24:3
36,26:3
36,27:2
36,28:3
36,30:2
36,33:3
36,34:3
36,35:1
36,37:1
36,54:3
36,55:1
36,56:1
36,57:1
36,58:1
36,60:2
36,61:1
36,63:1
37,10:1
37,13:1
37,14:1
37,18:1
37,19:1
37,22:2
37,23:2
37,24:2
37,26:2
37,27:1
37,28:2
37,30:1
37,33:2
37,34:2
37,54:2
37,60:1
41,1:1
41,2:1
41,3:1
41,4:1
41,5:1
41,8:1
41,9:1
41,10:2
41,13:2
41,14:2
41,15:1
41,16:1
41,17:1
41,18:2
41,19:2
41,20:1
41,21:1
41,22:3
41,23:3
41,24:3
41,26:3
41,27:2
41,28:3
41,30:2
41,33:3
41,34:3
41,35:1
41,37:1
41,38:3
41,39:3
41,40:3
41,43:3
41,44:3
41,47:2
41,48:2
41,49:1
41,54:3
41,55:1
41,56:1
41,57:1
41,58:1
41,60:2
41,61:1
41,63:1
42,1:1
42,2:1
42,3:1
42,4:1
42,5:1
42,8:1
42,9:1
42,10:2
42,13:2
42,14:2
42,15:1
42,16:1
42,17:1
42,18:2
42,19:2
42,20:1
42,21:1
42,22:3
42,23:3
42,24:3
42,26:3
42,27:2
42,28:3
42,30:2
42,33:3
42,34:3
42,35:1
42,37:1
42,38:3
42,39:3
42,40:3
42,43:3
42,44:3
42,47:2
42,48:2
42,49:1
42,54:3
42,55:1
42,56:1
42,57:1
42,58:1
42,60:2
42,61:1
42,63:1
45,1:1
45,2:1
45,3:1
45,4:1
45,5:1
45,8:1
45,9:1
45,10:2
45,13:2
45,14:2
45,15:1
45,16:1
45,17:1
45,18:2
45,19:2
45,20:1
45,21:1
45,22:3
45,23:3
45,24:3
45,26:3
45,27:2
45,28:3
45,30:2
45,33:3
45,34:3
45,35:1
45,37:1
45,38:3
45,39:3
45,40:3
45,43:3
45,44:3
45,54:3
45,55:1
45,56:1
45,57:1
45,58:1
45,60:2
45,61:1
45,63:1
46,1:1
46,2:1
46,3:1
46,4:1
46,5:1
46,8:1
46,9:1
46,10:2
46,13:2
46,14:2
46,15:1
46,16:1
46,17:1
46,18:2
46,19:2
46,20:1
46,21:1
46,22:3
46,23:3
46,24:3
46,26:3
46,27:2
46,28:3
46,30:2
46,33:3
46,34:3
46,35:1
46,37:1
46,38:3
46,39:3
46,40:3
46,43:3
46,44:3
46,54:3
46,55:1
46,56:1
46,57:1
46,58:1
46,60:2
46,61:1
46,63:1
47,22:1
47,23:1
47,24:1
47,26:1
47,28:1
47,33:1
47,34:1
47,38:1
47,39:1
47,40:1
47,43:1
47,44:1
47,54:1
48,22:1
48,23:1
48,24:1
48,26:1
48,28:1
48,33:1
48,34:1
48,38:1
48,39:1
48,40:1
48,43:1
48,44:1
48,54:1
48,68:1
48,69:1
48,76:1
48,78:1
48,79:1
48,81:1
48,82:1
48,83:1
48,85:1
48,88:1
48,89:1
49,10:1
49,13:1
49,14:1
49,18:1
49,19:1
49,22:2
49,23:2
49,24:2
49,26:2
49,27:1
49,28:2
49,30:1
49,33:2
49,34:2
49,38:2
49,39:2
49,40:2
49,43:2
49,44:2
49,47:1
49,48:1
49,54:2
49,60:1
50,1:1
50,2:1
50,3:1
50,4:1
50,5:1
50,8:1
50,9:1
50,10:2
50,13:2
50,14:2
50,15:1
50,16:1
50,17:1
50,18:2
50,19:2
50,20:1
50,21:1
50,22:3
50,23:3
50,24:3
50,26:3
50,27:2
50,28:3
50,30:2
50,33:3
50,34:3
50,35:1
50,37:1
50,38:3
50,39:3
50,40:3
50,43:3
50,44:3
50,47:2
50,48:2
50,49:1
50,54:3
50,55:1
50,56:1
50,57:1
50,58:1
50,60:2
50,61:1
50,63:1
51,1:1
51,2:1
51,3:1
51,4:1
51,5:1
51,8:1
51,9:1
51,10:2
51,13:2
51,14:2
51,15:1
51,16:1
51,17:1
51,18:2
51,19:2
51,20:1
51,21:1
51,22:3
51,23:3
51,24:3
51,26:3
51,27:2
51,28:3
51,30:2
51,33:3
51,34:3
51,35:1
51,37:1
51,38:3
51,39:3
51,40:3
51,43:3
51,44:3
51,47:2
51,48:2
51,49:1
51,54:3
51,55:1
51,56:1
51,57:1
51,58:1
51,60:2
51,61:1
51,63:1
52,1:1
52,2:1
52,3:1
52,4:1
52,5:1
52,8:1
52,9:1
52,10:2
52,13:2
52,14:2
52,15:1
52,16:1
52,17:1
52,18:2
52,19:2
52,20:1
52,21:1
52,22:3
52,23:3
52,24:3
52,26:3
52,27:2
52,28:3
52,30:2
52,33:3
52,34:3
52,35:1
52,37:1
52,38:3
52,39:3
52,40:3
52,43:3
52,44:3
52,47:2
52,48:2
52,49:1
52,54:3
52,55:1
52,56:1
52,57:1
52,58:1
52,60:2
52,61:1
52,63:1
53,1:1
53,2:1
53,3:1
53,4:1
53,5:1
53,8:1
53,9:1
53,10:2
53,13:2
53,14:2
53,15:1
53,16:1
53,17:1
53,18:2
53,19:2
53,20:1
53,21:1
53,22:3
53,23:3
53,24:3
53,26:3
53,27:2
53,28:3
53,30:2
53,33:3
53,34:3
53,35:1
53,37:1
53,38:3
53,39:3
53,40:3
53,43:3
53,44:3
53,47:2
53,48:2
53,49:1
53,54:3
53,55:1
53,56:1
53,57:1
53,58:1
53,60:2
53,61:1
53,63:1
55,10:1
55,13:1
55,14:1
55,18:1
55,19:1
55,22:2
55,23:2
55,24:2
55,26:2
55,27:1
55,28:2
55,30:1
55,33:2
55,34:2
55,38:2
55,39:2
55,40:2
55,43:2
55,44:2
55,47:1
55,48:1
55,54:2
55,68:2
55,69:2
55,80:1
56,10:1
56,13:1
56,14:1
56,18:1
56,19:1
56,22:2
56,23:2
56,24:2
56,26:2
56,27:1
56,28:2
56,30:1
56,33:2
56,34:2
56,38:2
56,39:2
56,40:2
56,43:2
56,44:2
56,47:1
56,48:1
56,54:2
56,68:2
56,69:2
56,80:1
57,10:1
57,13:1
57,14:1
57,18:1
57,19:1
57,22:2
57,23:2
57,24:2
57,26:2
57,27:1
57,28:2
57,30:1
57,33:2
57,34:2
57,38:2
57,39:2
57,40:2
57,43:2
57,44:2
57,47:1
57,48:1
57,54:2
57,68:2
57,69:2
57,80:1
58,10:1
58,13:1
58,14:1
58,18:1
58,19:1
58,22:2
58,23:2
58,24:2
58,26:2
58,27:1
58,28:2
58,30:1
58,33:2
58,34:2
58,38:2
58,39:2
58,40:2
58,43:2
58,44:2
58,47:1
58,48:1
58,54:2
58,60:1
58,68:2
58,69:2
58,80:1
59,1:1
59,2:1
59,3:1
59,4:1
59,5:1
59,8:1
59,9:1
59,10:2
59,13:2
59,14:2
59,15:1
59,16:1
59,17:1
59,18:2
59,19:2
59,20:1
59,21:1
59,22:3
59,23:3
59,24:3
59,26:3
59,27:2
59,28:3
59,30:2
59,33:3
59,34:3
59,35:1
59,37:1
59,38:3
59,39:3
59,40:3
59,43:3
59,44:3
59,47:2
59,48:2
59,49:1
59,54:3
59,55:1
59,56:1
59,57:1
59,58:1
59,60:2
59,61:1
59,63:1
59,68:3
59,69:3
59,80:2
60,22:1
60,23:1
60,24:1
60,26:1
60,28:1
60,33:1
60,34:1
60,38:1
60,39:1
60,40:1
60,43:1
60,44:1
60,54:1
60,68:1
60,69:1
61,10:1
61,13:1
61,14:1
61,18:1
61,19:1
61,22:2
61,23:2
61,24:2
61,26:2
61,27:1
61,28:2
61,30:1
61,33:2
61,34:2
61,38:2
61,39:2
61,40:2
61,43:2
61,44:2
61,47:1
61,48:1
61,54:2
61,60:1
61,68:2
61,69:2
61,80:1
62,1:1
62,2:1
62,3:1
62,4:1
62,5:1
62,8:1
62,9:1
62,10:2
62,13:2
62,14:2
62,15:1
62,16:1
62,17:1
62,18:2
62,19:2
62,20:1
62,21:1
62,22:3
62,23:3
62,24:3
62,26:3
62,27:2
62,28:3
62,30:2
62,33:3
62,34:3
62,35:1
62,37:1
62,38:3
62,39:3
62,40:3
62,43:3
62,44:3
62,47:2
62,48:2
62,49:1
62,54:3
62,55:1
62,56:1
62,57:1
62,58:1
62,60:2
62,61:1
62,63:1
62,68:3
62,69:3
62,80:2
63,10:1
63,13:1
63,14:1
63,18:1
63,19:1
63,22:2
63,23:2
63,24:2
63,26:2
63,27:1
63,28:2
63,30:1
63,33:2
63,34:2
63,38:2
63,39:2
63,40:2
63,43:2
63,44:2
63,47:1
63,48:1
63,54:2
63,60:1
63,68:2
63,69:2
63,80:1
64,1:1
64,2:1
64,3:1
64,4:1
64,5:1
64,8:1
64,9:1
64,10:2
64,13:2
64,14:2
64,15:1
64,16:1
64,17:1
64,18:2
64,19:2
64,20:1
64,21:1
64,22:3
64,23:3
64,24:3
64,26:3
64,27:2
64,28:3
64,30:2
64,33:3
64,34:3
64,35:1
64,37:1
64,38:3
64,39:3
64,40:3
64,43:3
64,44:3
64,47:2
64,48:2
64,49:1
64,54:3
64,55:1
64,56:1
64,57:1
64,58:1
64,60:2
64,61:1
64,63:1
64,68:3
64,69:3
64,80:2
65,1:1
65,2:1
65,3:1
65,4:1
65,5:1
65,8:1
65,9:1
65,10:2
65,13:2
65,14:2
65,15:1
65,16:1
65,17:1
65,18:2
65,19:2
65,20:1
65,21:1
65,22:3
65,23:3
65,24:3
65,26:3
65,27:2
65,28:3
65,30:2
65,33:3
65,34:3
65,35:1
65,37:1
65,38:3
65,39:3
65,40:3
65,43:3
65,44:3
65,47:2
65,48:2
65,49:1
65,54:3
65,55:1
65,56:1
65,57:1
65,58:1
65,60:2
65,61:1
65,63:1
65,68:3
65,69:3
65,80:2
66,1:1
66,2:1
66,3:1
66,4:1
66,5:1
66,8:1
66,9:1
66,10:2
66,13:2
66,14:2
66,15:1
66,16:1
66,17:1
66,18:2
66,19:2
66,20:1
66,21:1
66,22:3
66,23:3
66,24:3
66,26:3
66,27:2
66,28:3
66,30:2
66,33:3
66,34:3
66,35:1
66,37:1
66,38:3
66,39:3
66,40:3
66,43:3
66,44:3
66,47:2
66,48:2
66,49:1
66,54:3
66,55:1
66,56:1
66,57:1
66,58:1
66,60:2
66,61:1
66,63:1
66,68:3
66,69:3
66,80:2
67,1:1
67,2:1
67,3:1
67,4:1
67,5:1
67,8:1
67,9:1
67,10:2
67,13:2
67,14:2
67,15:1
67,16:1
67,17:1
67,18:2
67,19:2
67,20:1
67,21:1
67,22:3
67,23:3
67,24:3
67,26:3
67,27:2
67,28:3
67,30:2
67,33:3
67,34:3
67,35:1
67,37:1
67,38:3
67,39:3
67,40:3
67,43:3
67,44:3
67,47:2
67,48:2
67,49:1
67,54:3
67,55:1
67,56:1
67,57:1
67,58:1
67,60:2
67,61:1
67,63:1
67,68:3
67,69:3
67,80:2
70,1:1
70,2:1
70,3:1
70,4:1
70,5:1
70,8:1
70,9:1
70,10:2
70,13:2
70,14:2
70,15:1
70,16:1
70,17:1
70,18:2
70,19:2
70,20:1
70,21:1
70,22:3
70,23:3
70,24:3
70,26:3
70,27:2
70,28:3
70,30:2
70,33:3
70,34:3
70,35:1
70,37:1
70,38:3
70,39:3
70,40:3
70,43:3
70,44:3
70,47:2
70,48:2
70,49:1
70,54:3
70,55:1
70,56:1
70,57:1
70,58:1
70,60:2
70,61:1
70,63:1
70,68:3
70,69:3
70,74:2
70,75:2
70,76:3
70,77:2
71,1:1
71,2:1
71,3:1
71,4:1
71,5:1
71,8:1
71,9:1
71,10:2
71,13:2
71,14:2
71,15:1
71,16:1
71,17:1
71,18:2
71,19:2
71,20:1
71,21:1
71,22:3
71,23:3
71,24:3
71,26:3
71,27:2
71,28:3
71,30:2
71,33:3
71,34:3
71,35:1
71,37:1
71,38:3
71,39:3
71,40:3
71,43:3
71,44:3
71,47:2
71,48:2
71,49:1
71,54:3
71,55:1
71,56:1
71,57:1
71,58:1
71,60:2
71,61:1
71,63:1
71,68:3
71,69:3
71,80:2
72,1:1
72,2:1
72,3:1
72,4:1
72,5:1
72,8:1
72,9:1
72,10:2
72,13:2
72,14:2
72,15:1
72,16:1
72,17:1
72,18:2
72,19:2
72,20:1
72,21:1
72,22:3
72,23:3
72,24:3
72,26:3
72,27:2
72,28:3
72,30:2
72,33:3
72,34:3
72,35:1
72,37:1
72,38:3
72,39:3
72,40:3
72,43:3
72,44:3
72,47:2
72,48:2
72,49:1
72,54:3
72,55:1
72,56:1
72,57:1
72,58:1
72,60:2
72,61:1
72,63:1
72,68:3
72,69:3
72,74:2
72,75:2
72,76:3
72,77:2
73,1:1
73,2:1
73,3:1
73,4:1
73,5:1
73,8:1
73,9:1
73,10:2
73,13:2
73,14:2
73,15:1
73,16:1
73,17:1
73,18:2
73,19:2
73,20:1
73,21:1
73,22:3
73,23:3
73,24:3
73,26:3
73,27:2
73,28:3
73,30:2
73,33:3
73,34:3
73,35:1
73,37:1
73,38:3
73,39:3
73,40:3
73,43:3
73,44:3
73,47:2
73,48:2
73,49:1
73,54:3
73,55:1
73,56:1
73,57:1
73,58:1
73,60:2
73,61:1
73,63:1
73,68:3
73,69:3
73,80:2
74,22:1
74,23:1
74,24:1
74,26:1
74,28:1
74,33:1
74,34:1
74,38:1
74,39:1
74,40:1
74,43:1
74,44:1
74,54:1
74,68:1
74,69:1
75,22:1
75,23:1
75,24:1
75,26:1
75,28:1
75,33:1
75,34:1
75,38:1
75,39:1
75,40:1
75,43:1
75,44:1
75,54:1
75,68:1
75,69:1
75,76:1
77,22:1
77,23:1
77,24:1
77,26:1
77,28:1
77,33:1
77,34:1
77,38:1
77,39:1
77,40:1
77,43:1
77,44:1
77,54:1
77,68:1
77,69:1
77,76:1
80,22:1
80,23:1
80,24:1
80,26:1
80,28:1
80,33:1
80,34:1
80,38:1
80,39:1
80,40:1
80,43:1
80,44:1
80,54:1
80,68:1
80,69:1
80,76:1
80,78:1
80,79:1
84,10:1
84,13:1
84,14:1
84,18:1
84,19:1
84,22:2
84,23:2
84,24:2
84,26:2
84,27:1
84,28:2
84,30:1
84,33:2
84,34:2
84,38:2
84,39:2
84,40:2
84,43:2
84,44:2
84,47:1
84,48:1
84,54:2
84,60:1
84,68:2
84,69:2
84,74:1
84,75:1
84,76:2
84,77:1
84,78:2
84,79:2
84,80:1
84,81:2
84,82:2
84,83:2
84,85:2
86,10:1
86,13:1
86,14:1
86,18:1
86,19:1
86,22:2
86,23:2
86,24:2
86,26:2
86,27:1
86,28:2
86,30:1
86,33:2
86,34:2
86,38:2
86,39:2
86,40:2
86,43:2
86,44:2
86,47:1
86,48:1
86,54:2
86,60:1
86,68:2
86,69:2
86,74:1
86,75:1
86,76:2
86,77:1
86,78:2
86,79:2
86,80:1
86,81:2
86,82:2
86,83:2
86,85:2
87,10:1
87,13:1
87,14:1
87,18:1
87,19:1
87,22:2
87,23:2
87,24:2
87,26:2
87,27:1
87,28:2
87,30:1
87,33:2
87,34:2
87,38:2
87,39:2
87,40:2
87,43:2
87,44:2
87,47:1
87,48:1
87,54:2
87,60:1
87,68:2
87,69:2
87,74:1
87,75:1
87,76:2
87,77:1
87,78:2
87,79:2
87,80:1
87,81:2
87,82:2
87,83:2
87,85:2

<end>

<optimal SALBP-1 value>
29


<rand seed>
467321153

<Lower Bounds>
Lm1=29
Lms1=29
Lm2=17
Lm3=22
Lm4=29
Best=29

<Optimal Stations (Iterations: 10)>
38
